8131
51, 11, 52, 14, 13, 47, 26, 27, 28, 12, 33, 43, 10, 9, 8, 41, 19, 45, 3, 17, 18, 22, 1, 44, 46, 16, 29, 50, 20, 23, 30, 2, 7, 42, 21, 31, 32, 49, 36, 35, 34, 39, 40, 37, 38, 48, 24, 5, 15, 6, 4, 25
